p wcnf 129 64 65 
1 -86 6 0 
1 95 61 0 
1 -40 11 0 
1 -54 -111 0 
1 113 27 0 
1 -105 39 0 
1 83 -82 0 
1 31 102 0 
1 -50 92 0 
1 129 -77 0 
1 55 -124 0 
1 -15 22 0 
1 55 79 0 
1 -77 -71 0 
1 -68 70 0 
1 -65 110 0 
1 -44 -1 0 
1 46 21 0 
1 -73 -84 0 
1 10 15 0 
1 100 -34 0 
1 107 -126 0 
1 6 -73 0 
1 59 -75 0 
1 -56 -42 0 
1 -97 -31 0 
1 -117 -123 0 
1 -69 54 0 
1 -72 -125 0 
1 43 82 0 
1 -36 117 0 
1 -6 105 0 
1 24 -72 0 
1 129 123 0 
1 76 -25 0 
1 87 -50 0 
1 127 72 0 
1 35 73 0 
1 69 -89 0 
1 83 -106 0 
1 -80 -22 0 
1 -87 95 0 
1 -49 -105 0 
1 79 7 0 
1 -37 -70 0 
1 -123 113 0 
1 -118 -127 0 
1 -62 34 0 
1 -24 37 0 
1 -51 -17 0 
1 -9 -124 0 
1 -17 -126 0 
1 68 63 0 
1 -102 76 0 
1 -65 5 0 
1 22 33 0 
1 -21 -62 0 
1 -9 70 0 
1 -120 -73 0 
1 -74 120 0 
1 127 -118 0 
1 -38 69 0 
1 -42 2 0 
1 110 86 0 
